GeneratedTests/Random_10/Random_10_4.tsp
NAME: Random_10_4
TYPE: TSP
DIMENSION: 10
EDGE_WEIGHT_TYPE: EUC_2D
NODE_COORD_SECTION
1 13.577045 4.7352076
2 7.418132 24.776768
3 26.467058 24.627478
4 11.469233 24.277435
5 6.8423457 24.56013
6 27.23404 18.432697
7 21.017662 18.310173
8 24.264172 19.330029
9 3.7788982 17.88359
10 13.528337 16.09965
EOF
