GeneratedTests/Random_10/Random_10_4.txt
NAME: Random_10_4
TYPE: TSP
DIMENSION: 10
EDGE_WEIGHT_TYPE: EUC_2D
NODE_COORD_SECTION
1 1.216439 23.084272
2 15.543868 29.98809
3 16.78633 18.013157
4 22.81176 18.183609
5 3.998065 2.0107305
6 16.46465 9.704978
7 6.2611003 29.995182
8 5.3721247 17.255363
9 17.862064 8.709849
10 20.090607 14.153121
EOF
